* #variable= 91 #constraint= 481 #product= 603 sizeproduct= 1206
min: -2 x1 x46 +12 x1 -1 x46 -2 x1 x47 -5 x47 -2 x1 x48 +4 x48 +2 x1 x50 -9 x50 -2 x1 x51 +4 x51 -2 x1 x53 +4 x53 -2 x1 x55 -2 x1 x57 +4 x57 -2 x1 x59 -1 x59 -2 x1 x60 -5 x60 -2 x1 x61 -3 x61 +2 x1 x63 -3 x63 +2 x1 x64 +5 x64 +2 x1 x65 +5 x65 +2 x1 x66 +1 x66 +2 x1 x67 +5 x67 +2 x1 x69 -1 x69 -2 x1 x70 +9 x70 -2 x1 x71 +9 x71 -2 x1 x72 +3 x72 -2 x1 x73 +9 x73 -2 x1 x74 +3 x74 -2 x1 x75 +1 x75 -2 x1 x79 -5 x79 -2 x1 x83 -5 x83 -2 x1 x86 -1 x86 -2 x1 x88 -5 x88 +2 x1 x90 -1 x90 -2 x2 x46 -8 x2 -2 x2 x47 +2 x2 x55 +2 x2 x56 -2 x56 -2 x2 x59 -2 x2 x60 +2 x2 x61 +2 x2 x62 -7 x62 +2 x2 x63 +2 x2 x64 +2 x2 x65 +2 x2 x66 +2 x2 x67 +2 x2 x69 +2 x2 x72 -2 x2 x74 +2 x2 x75 +2 x2 x77 -2 x77 -2 x2 x79 +2 x2 x80 -7 x80 +2 x2 x81 -2 x81 -2 x2 x83 +2 x2 x84 -7 x84 -2 x2 x85 +2 x85 -2 x2 x86 -2 x2 x88 +2 x2 x89 -7 x89 +2 x2 x90 -2 x3 x46 +20 x3 -2 x3 x48 +2 x3 x50 -2 x3 x51 -2 x3 x53 -2 x3 x55 -2 x3 x56 -2 x3 x57 -2 x3 x59 -2 x3 x61 -2 x3 x62 +2 x3 x63 -2 x3 x66 -2 x3 x69 -2 x3 x70 -2 x3 x71 -2 x3 x72 -2 x3 x73 -2 x3 x74 -2 x3 x75 -2 x3 x77 -2 x3 x80 -2 x3 x81 -2 x3 x84 +2 x3 x85 +2 x3 x86 -2 x3 x89 -2 x3 x90 -2 x4 x46 +13 x4 -2 x4 x48 +2 x4 x50 -2 x4 x51 -2 x4 x53 -2 x4 x55 -2 x4 x56 -2 x4 x57 -2 x4 x59 -2 x4 x61 +2 x4 x63 -2 x4 x66 -2 x4 x70 -2 x4 x71 -2 x4 x72 -2 x4 x73 -2 x4 x74 -2 x4 x75 -2 x4 x77 -2 x4 x81 +2 x4 x85 +2 x4 x86 +2 x4 x87 -2 x87 +2 x5 x61 -8 x5 +2 x5 x62 +2 x5 x69 +2 x5 x75 +2 x5 x80 +2 x5 x84 +2 x5 x89 +2 x5 x90 -2 x6 x46 +12 x6 -2 x6 x48 +2 x6 x50 -2 x6 x51 -2 x6 x53 -2 x6 x55 -2 x6 x57 -2 x6 x59 -2 x6 x61 +2 x6 x63 -2 x6 x70 -2 x6 x71 -2 x6 x72 -2 x6 x73 -2 x6 x74 -2 x6 x75 +2 x7 x55 -12 x7 +2 x7 x56 +2 x7 x61 +2 x7 x62 +2 x7 x66 +2 x7 x69 +2 x7 x72 +2 x7 x75 +2 x7 x77 +2 x7 x80 +2 x7 x81 +2 x7 x84 -2 x7 x85 -2 x7 x86 +2 x7 x89 +2 x7 x90 -2 x8 x46 +13 x8 -2 x8 x48 +2 x8 x50 -2 x8 x51 -2 x8 x53 -2 x8 x55 -2 x8 x56 -2 x8 x57 -2 x8 x59 -2 x8 x61 +2 x8 x63 -2 x8 x66 -2 x8 x70 -2 x8 x71 -2 x8 x72 -2 x8 x73 -2 x8 x74 -2 x8 x75 -2 x8 x77 -2 x8 x81 +2 x8 x85 +2 x8 x86 +2 x8 x87 +2 x9 x61 -8 x9 +2 x9 x62 +2 x9 x69 +2 x9 x75 +2 x9 x80 +2 x9 x84 +2 x9 x89 +2 x9 x90 -2 x10 x46 +12 x10 -2 x10 x48 +2 x10 x50 -2 x10 x51 -2 x10 x53 -2 x10 x55 -2 x10 x57 -2 x10 x59 -2 x10 x61 +2 x10 x63 -2 x10 x70 -2 x10 x71 -2 x10 x72 -2 x10 x73 -2 x10 x74 -2 x10 x75 +2 x11 x55 -12 x11 +2 x11 x56 +2 x11 x61 +2 x11 x62 +2 x11 x66 +2 x11 x69 +2 x11 x72 +2 x11 x75 +2 x11 x77 +2 x11 x80 +2 x11 x81 +2 x11 x84 -2 x11 x85 -2 x11 x86 +2 x11 x89 +2 x11 x90 +2 x12 x50 +4 x12 +2 x12 x63 -2 x12 x70 -2 x12 x71 -2 x12 x72 -2 x12 x73 -2 x12 x74 -2 x12 x75 +2 x13 x46 -19 x13 +2 x13 x48 +2 x13 x49 -4 x49 +2 x13 x51 +2 x13 x53 +2 x13 x55 +2 x13 x56 +2 x13 x57 +2 x13 x59 +2 x13 x61 +2 x13 x62 +2 x13 x66 +2 x13 x69 +2 x13 x72 +2 x13 x75 +2 x13 x77 +2 x13 x80 +2 x13 x81 +2 x13 x84 -2 x13 x85 -2 x13 x86 +2 x13 x89 +2 x13 x90 -2 x14 x46 +13 x14 -2 x14 x48 +2 x14 x50 -2 x14 x51 -2 x14 x53 -2 x14 x55 -2 x14 x56 -2 x14 x57 -2 x14 x59 -2 x14 x61 +2 x14 x63 -2 x14 x66 -2 x14 x70 -2 x14 x71 -2 x14 x72 -2 x14 x73 -2 x14 x74 -2 x14 x75 -2 x14 x77 -2 x14 x81 +2 x14 x85 +2 x14 x86 +2 x14 x87 +2 x15 x61 -8 x15 +2 x15 x62 +2 x15 x69 +2 x15 x75 +2 x15 x80 +2 x15 x84 +2 x15 x89 +2 x15 x90 -2 x16 x46 +12 x16 -2 x16 x48 +2 x16 x50 -2 x16 x51 -2 x16 x53 -2 x16 x55 -2 x16 x57 -2 x16 x59 -2 x16 x61 +2 x16 x63 -2 x16 x70 -2 x16 x71 -2 x16 x72 -2 x16 x73 -2 x16 x74 -2 x16 x75 +2 x17 x55 -12 x17 +2 x17 x56 +2 x17 x61 +2 x17 x62 +2 x17 x66 +2 x17 x69 +2 x17 x72 +2 x17 x75 +2 x17 x77 +2 x17 x80 +2 x17 x81 +2 x17 x84 -2 x17 x85 -2 x17 x86 +2 x17 x89 +2 x17 x90 +2 x18 x46 +1 x18 +2 x18 x47 -2 x18 x55 -2 x18 x56 +2 x18 x59 +2 x18 x60 -2 x18 x63 -2 x18 x64 -2 x18 x65 -2 x18 x66 -2 x18 x67 -2 x18 x69 -2 x18 x72 +2 x18 x74 -2 x18 x77 +2 x18 x79 -2 x18 x81 +2 x18 x83 +2 x18 x85 +2 x18 x86 +2 x18 x87 +2 x18 x88 -2 x18 x90 +2 x19 x46 -2 x19 +2 x19 x47 +2 x19 x59 +2 x19 x60 -2 x19 x63 -2 x19 x64 -2 x19 x65 -2 x19 x66 -2 x19 x67 -2 x19 x69 +2 x19 x74 +2 x19 x79 +2 x19 x83 +2 x19 x86 +2 x19 x88 -2 x19 x90 +2 x20 x46 +1 x20 +2 x20 x47 -2 x20 x55 -2 x20 x56 +2 x20 x59 +2 x20 x60 -2 x20 x63 -2 x20 x64 -2 x20 x65 -2 x20 x66 -2 x20 x67 -2 x20 x69 -2 x20 x72 +2 x20 x74 -2 x20 x77 +2 x20 x79 -2 x20 x81 +2 x20 x83 +2 x20 x85 +2 x20 x86 +2 x20 x87 +2 x20 x88 -2 x20 x90 +2 x21 x46 -2 x21 +2 x21 x47 +2 x21 x59 +2 x21 x60 -2 x21 x63 -2 x21 x64 -2 x21 x65 -2 x21 x66 -2 x21 x67 -2 x21 x69 +2 x21 x74 +2 x21 x79 +2 x21 x83 +2 x21 x86 +2 x21 x88 -2 x21 x90 +2 x22 x46 -9 x22 +2 x22 x47 +2 x22 x48 +2 x22 x49 +2 x22 x51 +2 x22 x53 +2 x22 x55 +2 x22 x57 +2 x22 x59 +2 x22 x60 +2 x22 x61 -2 x22 x63 -2 x22 x64 -2 x22 x65 -2 x22 x66 -2 x22 x67 -2 x22 x69 +2 x22 x74 +2 x22 x79 +2 x22 x83 +2 x22 x86 +2 x22 x88 -2 x22 x90 +2 x23 x46 +1 x23 +2 x23 x47 -2 x23 x55 -2 x23 x56 +2 x23 x59 +2 x23 x60 -2 x23 x63 -2 x23 x64 -2 x23 x65 -2 x23 x66 -2 x23 x67 -2 x23 x69 -2 x23 x72 +2 x23 x74 -2 x23 x77 +2 x23 x79 -2 x23 x81 +2 x23 x83 +2 x23 x85 +2 x23 x86 +2 x23 x87 +2 x23 x88 -2 x23 x90 +2 x24 x46 -2 x24 +2 x24 x47 +2 x24 x59 +2 x24 x60 -2 x24 x63 -2 x24 x64 -2 x24 x65 -2 x24 x66 -2 x24 x67 -2 x24 x69 +2 x24 x74 +2 x24 x79 +2 x24 x83 +2 x24 x86 +2 x24 x88 -2 x24 x90 +2 x25 x55 -3 x25 +2 x25 x56 +2 x25 x66 +2 x25 x72 +2 x25 x77 +2 x25 x81 -2 x25 x85 -2 x25 x86 -2 x25 x87 +2 x27 x55 -3 x27 +2 x27 x56 +2 x27 x66 +2 x27 x72 +2 x27 x77 +2 x27 x81 -2 x27 x85 -2 x27 x86 -2 x27 x87 +2 x28 x46 -11 x28 +2 x28 x48 +2 x28 x49 +2 x28 x51 +2 x28 x53 +2 x28 x55 +2 x28 x56 +2 x28 x57 +2 x28 x59 +2 x28 x61 +2 x28 x66 +2 x28 x72 +2 x28 x77 +2 x28 x81 -2 x28 x85 -2 x28 x86 -2 x28 x87 +2 x30 x55 -3 x30 +2 x30 x56 +2 x30 x66 +2 x30 x72 +2 x30 x77 +2 x30 x81 -2 x30 x85 -2 x30 x86 -2 x30 x87 -2 x31 x55 +3 x31 -2 x31 x56 -2 x31 x66 -2 x31 x72 -2 x31 x77 -2 x31 x81 +2 x31 x85 +2 x31 x86 +2 x31 x87 +2 x33 x46 -9 x33 +2 x33 x48 +2 x33 x49 +2 x33 x51 +2 x33 x53 +2 x33 x55 +2 x33 x57 +2 x33 x59 +2 x33 x61 -2 x34 x55 +3 x34 -2 x34 x56 -2 x34 x66 -2 x34 x72 -2 x34 x77 -2 x34 x81 +2 x34 x85 +2 x34 x86 +2 x34 x87 +2 x36 x55 -3 x36 +2 x36 x56 +2 x36 x66 +2 x36 x72 +2 x36 x77 +2 x36 x81 -2 x36 x85 -2 x36 x86 -2 x36 x87 +2 x37 x46 -11 x37 +2 x37 x48 +2 x37 x49 +2 x37 x51 +2 x37 x53 +2 x37 x55 +2 x37 x56 +2 x37 x57 +2 x37 x59 +2 x37 x61 +2 x37 x66 +2 x37 x72 +2 x37 x77 +2 x37 x81 -2 x37 x85 -2 x37 x86 -2 x37 x87 +2 x39 x55 -3 x39 +2 x39 x56 +2 x39 x66 +2 x39 x72 +2 x39 x77 +2 x39 x81 -2 x39 x85 -2 x39 x86 -2 x39 x87 +2 x40 x46 -9 x40 +2 x40 x48 +2 x40 x49 +2 x40 x51 +2 x40 x53 +2 x40 x55 +2 x40 x57 +2 x40 x59 +2 x40 x61 -2 x41 x55 +3 x41 -2 x41 x56 -2 x41 x66 -2 x41 x72 -2 x41 x77 -2 x41 x81 +2 x41 x85 +2 x41 x86 +2 x41 x87 -2 x43 x46 +11 x43 -2 x43 x48 -2 x43 x49 -2 x43 x51 -2 x43 x53 -2 x43 x55 -2 x43 x56 -2 x43 x57 -2 x43 x59 -2 x43 x61 -2 x43 x66 -2 x43 x72 -2 x43 x77 -2 x43 x81 +2 x43 x85 +2 x43 x86 +2 x43 x87 -2 x44 x46 +9 x44 -2 x44 x48 -2 x44 x49 -2 x44 x51 -2 x44 x53 -2 x44 x55 -2 x44 x57 -2 x44 x59 -2 x44 x61 +2 x45 x55 -3 x45 +2 x45 x56 +2 x45 x66 +2 x45 x72 +2 x45 x77 +2 x45 x81 -2 x45 x85 -2 x45 x86 -2 x45 x87 +1646 x91 ;
+1 x1 -1 x2 -1 x3 >= -1 ;
-1 x3 +1 x4 -1 x5 >= -1 ;
-1 x3 +1 x6 -1 x7 >= -1 ;
-1 x3 +1 x8 -1 x9 >= -1 ;
-1 x3 +1 x10 -1 x11 >= -1 ;
-1 x3 +1 x12 -1 x13 >= -1 ;
-1 x3 +1 x14 -1 x15 >= -1 ;
-1 x3 +1 x16 -1 x17 >= -1 ;
-1 x1 +1 x4 -1 x18 >= -1 ;
-1 x1 +1 x6 -1 x19 >= -1 ;
-1 x1 +1 x8 -1 x20 >= -1 ;
-1 x1 +1 x10 -1 x21 >= -1 ;
-1 x1 +1 x12 -1 x22 >= -1 ;
-1 x1 +1 x14 -1 x23 >= -1 ;
-1 x1 +1 x16 -1 x24 >= -1 ;
-1 x4 +1 x6 -1 x25 >= -1 ;
-1 x4 +1 x8 -1 x26 >= -1 ;
-1 x4 +1 x10 -1 x27 >= -1 ;
-1 x4 +1 x12 -1 x28 >= -1 ;
-1 x4 +1 x14 -1 x29 >= -1 ;
-1 x4 +1 x16 -1 x30 >= -1 ;
-1 x6 +1 x8 -1 x31 >= -1 ;
-1 x6 +1 x10 -1 x32 >= -1 ;
-1 x6 +1 x12 -1 x33 >= -1 ;
-1 x6 +1 x14 -1 x34 >= -1 ;
-1 x6 +1 x16 -1 x35 >= -1 ;
-1 x8 +1 x10 -1 x36 >= -1 ;
-1 x8 +1 x12 -1 x37 >= -1 ;
-1 x8 +1 x14 -1 x38 >= -1 ;
-1 x8 +1 x16 -1 x39 >= -1 ;
-1 x10 +1 x12 -1 x40 >= -1 ;
-1 x10 +1 x14 -1 x41 >= -1 ;
-1 x10 +1 x16 -1 x42 >= -1 ;
-1 x12 +1 x14 -1 x43 >= -1 ;
-1 x12 +1 x16 -1 x44 >= -1 ;
-1 x14 +1 x16 -1 x45 >= -1 ;
-1 x2 +1 x5 -1 x18 >= -1 ;
-1 x2 +1 x7 -1 x19 >= -1 ;
-1 x2 +1 x9 -1 x20 >= -1 ;
-1 x2 +1 x11 -1 x21 >= -1 ;
-1 x2 +1 x13 -1 x22 >= -1 ;
-1 x2 +1 x15 -1 x23 >= -1 ;
-1 x2 +1 x17 -1 x24 >= -1 ;
-1 x5 +1 x7 -1 x25 >= -1 ;
-1 x5 +1 x9 -1 x26 >= -1 ;
-1 x5 +1 x11 -1 x27 >= -1 ;
-1 x5 +1 x13 -1 x28 >= -1 ;
-1 x5 +1 x15 -1 x29 >= -1 ;
-1 x5 +1 x17 -1 x30 >= -1 ;
-1 x7 +1 x9 -1 x31 >= -1 ;
-1 x7 +1 x11 -1 x32 >= -1 ;
-1 x7 +1 x13 -1 x33 >= -1 ;
-1 x7 +1 x15 -1 x34 >= -1 ;
-1 x7 +1 x17 -1 x35 >= -1 ;
-1 x9 +1 x11 -1 x36 >= -1 ;
-1 x9 +1 x13 -1 x37 >= -1 ;
-1 x9 +1 x15 -1 x38 >= -1 ;
-1 x9 +1 x17 -1 x39 >= -1 ;
-1 x11 +1 x13 -1 x40 >= -1 ;
-1 x11 +1 x15 -1 x41 >= -1 ;
-1 x11 +1 x17 -1 x42 >= -1 ;
-1 x13 +1 x15 -1 x43 >= -1 ;
-1 x13 +1 x17 -1 x44 >= -1 ;
-1 x15 +1 x17 -1 x45 >= -1 ;
-1 x18 +1 x19 -1 x25 >= -1 ;
-1 x18 +1 x20 -1 x26 >= -1 ;
-1 x18 +1 x21 -1 x27 >= -1 ;
-1 x18 +1 x22 -1 x28 >= -1 ;
-1 x18 +1 x23 -1 x29 >= -1 ;
-1 x18 +1 x24 -1 x30 >= -1 ;
-1 x19 +1 x20 -1 x31 >= -1 ;
-1 x19 +1 x21 -1 x32 >= -1 ;
-1 x19 +1 x22 -1 x33 >= -1 ;
-1 x19 +1 x23 -1 x34 >= -1 ;
-1 x19 +1 x24 -1 x35 >= -1 ;
-1 x20 +1 x21 -1 x36 >= -1 ;
-1 x20 +1 x22 -1 x37 >= -1 ;
-1 x20 +1 x23 -1 x38 >= -1 ;
-1 x20 +1 x24 -1 x39 >= -1 ;
-1 x21 +1 x22 -1 x40 >= -1 ;
-1 x21 +1 x23 -1 x41 >= -1 ;
-1 x21 +1 x24 -1 x42 >= -1 ;
-1 x22 +1 x23 -1 x43 >= -1 ;
-1 x22 +1 x24 -1 x44 >= -1 ;
-1 x23 +1 x24 -1 x45 >= -1 ;
-1 x25 +1 x26 -1 x31 >= -1 ;
-1 x25 +1 x27 -1 x32 >= -1 ;
-1 x25 +1 x28 -1 x33 >= -1 ;
-1 x25 +1 x29 -1 x34 >= -1 ;
-1 x25 +1 x30 -1 x35 >= -1 ;
-1 x26 +1 x27 -1 x36 >= -1 ;
-1 x26 +1 x28 -1 x37 >= -1 ;
-1 x26 +1 x29 -1 x38 >= -1 ;
-1 x26 +1 x30 -1 x39 >= -1 ;
-1 x27 +1 x28 -1 x40 >= -1 ;
-1 x27 +1 x29 -1 x41 >= -1 ;
-1 x27 +1 x30 -1 x42 >= -1 ;
-1 x28 +1 x29 -1 x43 >= -1 ;
-1 x28 +1 x30 -1 x44 >= -1 ;
-1 x29 +1 x30 -1 x45 >= -1 ;
-1 x31 +1 x32 -1 x36 >= -1 ;
-1 x31 +1 x33 -1 x37 >= -1 ;
-1 x31 +1 x34 -1 x38 >= -1 ;
-1 x31 +1 x35 -1 x39 >= -1 ;
-1 x32 +1 x33 -1 x40 >= -1 ;
-1 x32 +1 x34 -1 x41 >= -1 ;
-1 x32 +1 x35 -1 x42 >= -1 ;
-1 x33 +1 x34 -1 x43 >= -1 ;
-1 x33 +1 x35 -1 x44 >= -1 ;
-1 x34 +1 x35 -1 x45 >= -1 ;
-1 x36 +1 x37 -1 x40 >= -1 ;
-1 x36 +1 x38 -1 x41 >= -1 ;
-1 x36 +1 x39 -1 x42 >= -1 ;
-1 x37 +1 x38 -1 x43 >= -1 ;
-1 x37 +1 x39 -1 x44 >= -1 ;
-1 x38 +1 x39 -1 x45 >= -1 ;
-1 x40 +1 x41 -1 x43 >= -1 ;
-1 x40 +1 x42 -1 x44 >= -1 ;
-1 x41 +1 x42 -1 x45 >= -1 ;
-1 x43 +1 x44 -1 x45 >= -1 ;
-1 x1 +1 x2 +1 x3 >= 0 ;
+1 x3 -1 x4 +1 x5 >= 0 ;
+1 x3 -1 x6 +1 x7 >= 0 ;
+1 x3 -1 x8 +1 x9 >= 0 ;
+1 x3 -1 x10 +1 x11 >= 0 ;
+1 x3 -1 x12 +1 x13 >= 0 ;
+1 x3 -1 x14 +1 x15 >= 0 ;
+1 x3 -1 x16 +1 x17 >= 0 ;
+1 x1 -1 x4 +1 x18 >= 0 ;
+1 x1 -1 x6 +1 x19 >= 0 ;
+1 x1 -1 x8 +1 x20 >= 0 ;
+1 x1 -1 x10 +1 x21 >= 0 ;
+1 x1 -1 x12 +1 x22 >= 0 ;
+1 x1 -1 x14 +1 x23 >= 0 ;
+1 x1 -1 x16 +1 x24 >= 0 ;
+1 x4 -1 x6 +1 x25 >= 0 ;
+1 x4 -1 x8 +1 x26 >= 0 ;
+1 x4 -1 x10 +1 x27 >= 0 ;
+1 x4 -1 x12 +1 x28 >= 0 ;
+1 x4 -1 x14 +1 x29 >= 0 ;
+1 x4 -1 x16 +1 x30 >= 0 ;
+1 x6 -1 x8 +1 x31 >= 0 ;
+1 x6 -1 x10 +1 x32 >= 0 ;
+1 x6 -1 x12 +1 x33 >= 0 ;
+1 x6 -1 x14 +1 x34 >= 0 ;
+1 x6 -1 x16 +1 x35 >= 0 ;
+1 x8 -1 x10 +1 x36 >= 0 ;
+1 x8 -1 x12 +1 x37 >= 0 ;
+1 x8 -1 x14 +1 x38 >= 0 ;
+1 x8 -1 x16 +1 x39 >= 0 ;
+1 x10 -1 x12 +1 x40 >= 0 ;
+1 x10 -1 x14 +1 x41 >= 0 ;
+1 x10 -1 x16 +1 x42 >= 0 ;
+1 x12 -1 x14 +1 x43 >= 0 ;
+1 x12 -1 x16 +1 x44 >= 0 ;
+1 x14 -1 x16 +1 x45 >= 0 ;
+1 x2 -1 x5 +1 x18 >= 0 ;
+1 x2 -1 x7 +1 x19 >= 0 ;
+1 x2 -1 x9 +1 x20 >= 0 ;
+1 x2 -1 x11 +1 x21 >= 0 ;
+1 x2 -1 x13 +1 x22 >= 0 ;
+1 x2 -1 x15 +1 x23 >= 0 ;
+1 x2 -1 x17 +1 x24 >= 0 ;
+1 x5 -1 x7 +1 x25 >= 0 ;
+1 x5 -1 x9 +1 x26 >= 0 ;
+1 x5 -1 x11 +1 x27 >= 0 ;
+1 x5 -1 x13 +1 x28 >= 0 ;
+1 x5 -1 x15 +1 x29 >= 0 ;
+1 x5 -1 x17 +1 x30 >= 0 ;
+1 x7 -1 x9 +1 x31 >= 0 ;
+1 x7 -1 x11 +1 x32 >= 0 ;
+1 x7 -1 x13 +1 x33 >= 0 ;
+1 x7 -1 x15 +1 x34 >= 0 ;
+1 x7 -1 x17 +1 x35 >= 0 ;
+1 x9 -1 x11 +1 x36 >= 0 ;
+1 x9 -1 x13 +1 x37 >= 0 ;
+1 x9 -1 x15 +1 x38 >= 0 ;
+1 x9 -1 x17 +1 x39 >= 0 ;
+1 x11 -1 x13 +1 x40 >= 0 ;
+1 x11 -1 x15 +1 x41 >= 0 ;
+1 x11 -1 x17 +1 x42 >= 0 ;
+1 x13 -1 x15 +1 x43 >= 0 ;
+1 x13 -1 x17 +1 x44 >= 0 ;
+1 x15 -1 x17 +1 x45 >= 0 ;
+1 x18 -1 x19 +1 x25 >= 0 ;
+1 x18 -1 x20 +1 x26 >= 0 ;
+1 x18 -1 x21 +1 x27 >= 0 ;
+1 x18 -1 x22 +1 x28 >= 0 ;
+1 x18 -1 x23 +1 x29 >= 0 ;
+1 x18 -1 x24 +1 x30 >= 0 ;
+1 x19 -1 x20 +1 x31 >= 0 ;
+1 x19 -1 x21 +1 x32 >= 0 ;
+1 x19 -1 x22 +1 x33 >= 0 ;
+1 x19 -1 x23 +1 x34 >= 0 ;
+1 x19 -1 x24 +1 x35 >= 0 ;
+1 x20 -1 x21 +1 x36 >= 0 ;
+1 x20 -1 x22 +1 x37 >= 0 ;
+1 x20 -1 x23 +1 x38 >= 0 ;
+1 x20 -1 x24 +1 x39 >= 0 ;
+1 x21 -1 x22 +1 x40 >= 0 ;
+1 x21 -1 x23 +1 x41 >= 0 ;
+1 x21 -1 x24 +1 x42 >= 0 ;
+1 x22 -1 x23 +1 x43 >= 0 ;
+1 x22 -1 x24 +1 x44 >= 0 ;
+1 x23 -1 x24 +1 x45 >= 0 ;
+1 x25 -1 x26 +1 x31 >= 0 ;
+1 x25 -1 x27 +1 x32 >= 0 ;
+1 x25 -1 x28 +1 x33 >= 0 ;
+1 x25 -1 x29 +1 x34 >= 0 ;
+1 x25 -1 x30 +1 x35 >= 0 ;
+1 x26 -1 x27 +1 x36 >= 0 ;
+1 x26 -1 x28 +1 x37 >= 0 ;
+1 x26 -1 x29 +1 x38 >= 0 ;
+1 x26 -1 x30 +1 x39 >= 0 ;
+1 x27 -1 x28 +1 x40 >= 0 ;
+1 x27 -1 x29 +1 x41 >= 0 ;
+1 x27 -1 x30 +1 x42 >= 0 ;
+1 x28 -1 x29 +1 x43 >= 0 ;
+1 x28 -1 x30 +1 x44 >= 0 ;
+1 x29 -1 x30 +1 x45 >= 0 ;
+1 x31 -1 x32 +1 x36 >= 0 ;
+1 x31 -1 x33 +1 x37 >= 0 ;
+1 x31 -1 x34 +1 x38 >= 0 ;
+1 x31 -1 x35 +1 x39 >= 0 ;
+1 x32 -1 x33 +1 x40 >= 0 ;
+1 x32 -1 x34 +1 x41 >= 0 ;
+1 x32 -1 x35 +1 x42 >= 0 ;
+1 x33 -1 x34 +1 x43 >= 0 ;
+1 x33 -1 x35 +1 x44 >= 0 ;
+1 x34 -1 x35 +1 x45 >= 0 ;
+1 x36 -1 x37 +1 x40 >= 0 ;
+1 x36 -1 x38 +1 x41 >= 0 ;
+1 x36 -1 x39 +1 x42 >= 0 ;
+1 x37 -1 x38 +1 x43 >= 0 ;
+1 x37 -1 x39 +1 x44 >= 0 ;
+1 x38 -1 x39 +1 x45 >= 0 ;
+1 x40 -1 x41 +1 x43 >= 0 ;
+1 x40 -1 x42 +1 x44 >= 0 ;
+1 x41 -1 x42 +1 x45 >= 0 ;
+1 x43 -1 x44 +1 x45 >= 0 ;
+1 x46 -1 x47 -1 x48 >= -1 ;
-1 x48 +1 x49 -1 x50 >= -1 ;
-1 x48 +1 x51 -1 x52 >= -1 ;
-1 x48 +1 x53 -1 x54 >= -1 ;
-1 x48 +1 x55 -1 x56 >= -1 ;
-1 x48 +1 x57 -1 x58 >= -1 ;
-1 x48 +1 x59 -1 x60 >= -1 ;
-1 x48 +1 x61 -1 x62 >= -1 ;
-1 x46 +1 x49 -1 x63 >= -1 ;
-1 x46 +1 x51 -1 x64 >= -1 ;
-1 x46 +1 x53 -1 x65 >= -1 ;
-1 x46 +1 x55 -1 x66 >= -1 ;
-1 x46 +1 x57 -1 x67 >= -1 ;
-1 x46 +1 x59 -1 x68 >= -1 ;
-1 x46 +1 x61 -1 x69 >= -1 ;
-1 x49 +1 x51 -1 x70 >= -1 ;
-1 x49 +1 x53 -1 x71 >= -1 ;
-1 x49 +1 x55 -1 x72 >= -1 ;
-1 x49 +1 x57 -1 x73 >= -1 ;
-1 x49 +1 x59 -1 x74 >= -1 ;
-1 x49 +1 x61 -1 x75 >= -1 ;
-1 x51 +1 x53 -1 x76 >= -1 ;
-1 x51 +1 x55 -1 x77 >= -1 ;
-1 x51 +1 x57 -1 x78 >= -1 ;
-1 x51 +1 x59 -1 x79 >= -1 ;
-1 x51 +1 x61 -1 x80 >= -1 ;
-1 x53 +1 x55 -1 x81 >= -1 ;
-1 x53 +1 x57 -1 x82 >= -1 ;
-1 x53 +1 x59 -1 x83 >= -1 ;
-1 x53 +1 x61 -1 x84 >= -1 ;
-1 x55 +1 x57 -1 x85 >= -1 ;
-1 x55 +1 x59 -1 x86 >= -1 ;
-1 x55 +1 x61 -1 x87 >= -1 ;
-1 x57 +1 x59 -1 x88 >= -1 ;
-1 x57 +1 x61 -1 x89 >= -1 ;
-1 x59 +1 x61 -1 x90 >= -1 ;
-1 x47 +1 x50 -1 x63 >= -1 ;
-1 x47 +1 x52 -1 x64 >= -1 ;
-1 x47 +1 x54 -1 x65 >= -1 ;
-1 x47 +1 x56 -1 x66 >= -1 ;
-1 x47 +1 x58 -1 x67 >= -1 ;
-1 x47 +1 x60 -1 x68 >= -1 ;
-1 x47 +1 x62 -1 x69 >= -1 ;
-1 x50 +1 x52 -1 x70 >= -1 ;
-1 x50 +1 x54 -1 x71 >= -1 ;
-1 x50 +1 x56 -1 x72 >= -1 ;
-1 x50 +1 x58 -1 x73 >= -1 ;
-1 x50 +1 x60 -1 x74 >= -1 ;
-1 x50 +1 x62 -1 x75 >= -1 ;
-1 x52 +1 x54 -1 x76 >= -1 ;
-1 x52 +1 x56 -1 x77 >= -1 ;
-1 x52 +1 x58 -1 x78 >= -1 ;
-1 x52 +1 x60 -1 x79 >= -1 ;
-1 x52 +1 x62 -1 x80 >= -1 ;
-1 x54 +1 x56 -1 x81 >= -1 ;
-1 x54 +1 x58 -1 x82 >= -1 ;
-1 x54 +1 x60 -1 x83 >= -1 ;
-1 x54 +1 x62 -1 x84 >= -1 ;
-1 x56 +1 x58 -1 x85 >= -1 ;
-1 x56 +1 x60 -1 x86 >= -1 ;
-1 x56 +1 x62 -1 x87 >= -1 ;
-1 x58 +1 x60 -1 x88 >= -1 ;
-1 x58 +1 x62 -1 x89 >= -1 ;
-1 x60 +1 x62 -1 x90 >= -1 ;
-1 x63 +1 x64 -1 x70 >= -1 ;
-1 x63 +1 x65 -1 x71 >= -1 ;
-1 x63 +1 x66 -1 x72 >= -1 ;
-1 x63 +1 x67 -1 x73 >= -1 ;
-1 x63 +1 x68 -1 x74 >= -1 ;
-1 x63 +1 x69 -1 x75 >= -1 ;
-1 x64 +1 x65 -1 x76 >= -1 ;
-1 x64 +1 x66 -1 x77 >= -1 ;
-1 x64 +1 x67 -1 x78 >= -1 ;
-1 x64 +1 x68 -1 x79 >= -1 ;
-1 x64 +1 x69 -1 x80 >= -1 ;
-1 x65 +1 x66 -1 x81 >= -1 ;
-1 x65 +1 x67 -1 x82 >= -1 ;
-1 x65 +1 x68 -1 x83 >= -1 ;
-1 x65 +1 x69 -1 x84 >= -1 ;
-1 x66 +1 x67 -1 x85 >= -1 ;
-1 x66 +1 x68 -1 x86 >= -1 ;
-1 x66 +1 x69 -1 x87 >= -1 ;
-1 x67 +1 x68 -1 x88 >= -1 ;
-1 x67 +1 x69 -1 x89 >= -1 ;
-1 x68 +1 x69 -1 x90 >= -1 ;
-1 x70 +1 x71 -1 x76 >= -1 ;
-1 x70 +1 x72 -1 x77 >= -1 ;
-1 x70 +1 x73 -1 x78 >= -1 ;
-1 x70 +1 x74 -1 x79 >= -1 ;
-1 x70 +1 x75 -1 x80 >= -1 ;
-1 x71 +1 x72 -1 x81 >= -1 ;
-1 x71 +1 x73 -1 x82 >= -1 ;
-1 x71 +1 x74 -1 x83 >= -1 ;
-1 x71 +1 x75 -1 x84 >= -1 ;
-1 x72 +1 x73 -1 x85 >= -1 ;
-1 x72 +1 x74 -1 x86 >= -1 ;
-1 x72 +1 x75 -1 x87 >= -1 ;
-1 x73 +1 x74 -1 x88 >= -1 ;
-1 x73 +1 x75 -1 x89 >= -1 ;
-1 x74 +1 x75 -1 x90 >= -1 ;
-1 x76 +1 x77 -1 x81 >= -1 ;
-1 x76 +1 x78 -1 x82 >= -1 ;
-1 x76 +1 x79 -1 x83 >= -1 ;
-1 x76 +1 x80 -1 x84 >= -1 ;
-1 x77 +1 x78 -1 x85 >= -1 ;
-1 x77 +1 x79 -1 x86 >= -1 ;
-1 x77 +1 x80 -1 x87 >= -1 ;
-1 x78 +1 x79 -1 x88 >= -1 ;
-1 x78 +1 x80 -1 x89 >= -1 ;
-1 x79 +1 x80 -1 x90 >= -1 ;
-1 x81 +1 x82 -1 x85 >= -1 ;
-1 x81 +1 x83 -1 x86 >= -1 ;
-1 x81 +1 x84 -1 x87 >= -1 ;
-1 x82 +1 x83 -1 x88 >= -1 ;
-1 x82 +1 x84 -1 x89 >= -1 ;
-1 x83 +1 x84 -1 x90 >= -1 ;
-1 x85 +1 x86 -1 x88 >= -1 ;
-1 x85 +1 x87 -1 x89 >= -1 ;
-1 x86 +1 x87 -1 x90 >= -1 ;
-1 x88 +1 x89 -1 x90 >= -1 ;
-1 x46 +1 x47 +1 x48 >= 0 ;
+1 x48 -1 x49 +1 x50 >= 0 ;
+1 x48 -1 x51 +1 x52 >= 0 ;
+1 x48 -1 x53 +1 x54 >= 0 ;
+1 x48 -1 x55 +1 x56 >= 0 ;
+1 x48 -1 x57 +1 x58 >= 0 ;
+1 x48 -1 x59 +1 x60 >= 0 ;
+1 x48 -1 x61 +1 x62 >= 0 ;
+1 x46 -1 x49 +1 x63 >= 0 ;
+1 x46 -1 x51 +1 x64 >= 0 ;
+1 x46 -1 x53 +1 x65 >= 0 ;
+1 x46 -1 x55 +1 x66 >= 0 ;
+1 x46 -1 x57 +1 x67 >= 0 ;
+1 x46 -1 x59 +1 x68 >= 0 ;
+1 x46 -1 x61 +1 x69 >= 0 ;
+1 x49 -1 x51 +1 x70 >= 0 ;
+1 x49 -1 x53 +1 x71 >= 0 ;
+1 x49 -1 x55 +1 x72 >= 0 ;
+1 x49 -1 x57 +1 x73 >= 0 ;
+1 x49 -1 x59 +1 x74 >= 0 ;
+1 x49 -1 x61 +1 x75 >= 0 ;
+1 x51 -1 x53 +1 x76 >= 0 ;
+1 x51 -1 x55 +1 x77 >= 0 ;
+1 x51 -1 x57 +1 x78 >= 0 ;
+1 x51 -1 x59 +1 x79 >= 0 ;
+1 x51 -1 x61 +1 x80 >= 0 ;
+1 x53 -1 x55 +1 x81 >= 0 ;
+1 x53 -1 x57 +1 x82 >= 0 ;
+1 x53 -1 x59 +1 x83 >= 0 ;
+1 x53 -1 x61 +1 x84 >= 0 ;
+1 x55 -1 x57 +1 x85 >= 0 ;
+1 x55 -1 x59 +1 x86 >= 0 ;
+1 x55 -1 x61 +1 x87 >= 0 ;
+1 x57 -1 x59 +1 x88 >= 0 ;
+1 x57 -1 x61 +1 x89 >= 0 ;
+1 x59 -1 x61 +1 x90 >= 0 ;
+1 x47 -1 x50 +1 x63 >= 0 ;
+1 x47 -1 x52 +1 x64 >= 0 ;
+1 x47 -1 x54 +1 x65 >= 0 ;
+1 x47 -1 x56 +1 x66 >= 0 ;
+1 x47 -1 x58 +1 x67 >= 0 ;
+1 x47 -1 x60 +1 x68 >= 0 ;
+1 x47 -1 x62 +1 x69 >= 0 ;
+1 x50 -1 x52 +1 x70 >= 0 ;
+1 x50 -1 x54 +1 x71 >= 0 ;
+1 x50 -1 x56 +1 x72 >= 0 ;
+1 x50 -1 x58 +1 x73 >= 0 ;
+1 x50 -1 x60 +1 x74 >= 0 ;
+1 x50 -1 x62 +1 x75 >= 0 ;
+1 x52 -1 x54 +1 x76 >= 0 ;
+1 x52 -1 x56 +1 x77 >= 0 ;
+1 x52 -1 x58 +1 x78 >= 0 ;
+1 x52 -1 x60 +1 x79 >= 0 ;
+1 x52 -1 x62 +1 x80 >= 0 ;
+1 x54 -1 x56 +1 x81 >= 0 ;
+1 x54 -1 x58 +1 x82 >= 0 ;
+1 x54 -1 x60 +1 x83 >= 0 ;
+1 x54 -1 x62 +1 x84 >= 0 ;
+1 x56 -1 x58 +1 x85 >= 0 ;
+1 x56 -1 x60 +1 x86 >= 0 ;
+1 x56 -1 x62 +1 x87 >= 0 ;
+1 x58 -1 x60 +1 x88 >= 0 ;
+1 x58 -1 x62 +1 x89 >= 0 ;
+1 x60 -1 x62 +1 x90 >= 0 ;
+1 x63 -1 x64 +1 x70 >= 0 ;
+1 x63 -1 x65 +1 x71 >= 0 ;
+1 x63 -1 x66 +1 x72 >= 0 ;
+1 x63 -1 x67 +1 x73 >= 0 ;
+1 x63 -1 x68 +1 x74 >= 0 ;
+1 x63 -1 x69 +1 x75 >= 0 ;
+1 x64 -1 x65 +1 x76 >= 0 ;
+1 x64 -1 x66 +1 x77 >= 0 ;
+1 x64 -1 x67 +1 x78 >= 0 ;
+1 x64 -1 x68 +1 x79 >= 0 ;
+1 x64 -1 x69 +1 x80 >= 0 ;
+1 x65 -1 x66 +1 x81 >= 0 ;
+1 x65 -1 x67 +1 x82 >= 0 ;
+1 x65 -1 x68 +1 x83 >= 0 ;
+1 x65 -1 x69 +1 x84 >= 0 ;
+1 x66 -1 x67 +1 x85 >= 0 ;
+1 x66 -1 x68 +1 x86 >= 0 ;
+1 x66 -1 x69 +1 x87 >= 0 ;
+1 x67 -1 x68 +1 x88 >= 0 ;
+1 x67 -1 x69 +1 x89 >= 0 ;
+1 x68 -1 x69 +1 x90 >= 0 ;
+1 x70 -1 x71 +1 x76 >= 0 ;
+1 x70 -1 x72 +1 x77 >= 0 ;
+1 x70 -1 x73 +1 x78 >= 0 ;
+1 x70 -1 x74 +1 x79 >= 0 ;
+1 x70 -1 x75 +1 x80 >= 0 ;
+1 x71 -1 x72 +1 x81 >= 0 ;
+1 x71 -1 x73 +1 x82 >= 0 ;
+1 x71 -1 x74 +1 x83 >= 0 ;
+1 x71 -1 x75 +1 x84 >= 0 ;
+1 x72 -1 x73 +1 x85 >= 0 ;
+1 x72 -1 x74 +1 x86 >= 0 ;
+1 x72 -1 x75 +1 x87 >= 0 ;
+1 x73 -1 x74 +1 x88 >= 0 ;
+1 x73 -1 x75 +1 x89 >= 0 ;
+1 x74 -1 x75 +1 x90 >= 0 ;
+1 x76 -1 x77 +1 x81 >= 0 ;
+1 x76 -1 x78 +1 x82 >= 0 ;
+1 x76 -1 x79 +1 x83 >= 0 ;
+1 x76 -1 x80 +1 x84 >= 0 ;
+1 x77 -1 x78 +1 x85 >= 0 ;
+1 x77 -1 x79 +1 x86 >= 0 ;
+1 x77 -1 x80 +1 x87 >= 0 ;
+1 x78 -1 x79 +1 x88 >= 0 ;
+1 x78 -1 x80 +1 x89 >= 0 ;
+1 x79 -1 x80 +1 x90 >= 0 ;
+1 x81 -1 x82 +1 x85 >= 0 ;
+1 x81 -1 x83 +1 x86 >= 0 ;
+1 x81 -1 x84 +1 x87 >= 0 ;
+1 x82 -1 x83 +1 x88 >= 0 ;
+1 x82 -1 x84 +1 x89 >= 0 ;
+1 x83 -1 x84 +1 x90 >= 0 ;
+1 x85 -1 x86 +1 x88 >= 0 ;
+1 x85 -1 x87 +1 x89 >= 0 ;
+1 x86 -1 x87 +1 x90 >= 0 ;
+1 x88 -1 x89 +1 x90 >= 0 ;
+1 x91 = 1 ;
